SystemName Si-O-APTES
SystemLabel Si-O-APTES
NumberOfAtoms 703
NumberOfSpecies 5

# DFT, Grid, SCF
XC.functional            GGA        # Exchange-correlation functional type
XC.authors               PBE        # Particular parametrization of xc func
SpinPolarized           .false.      # Spin unpolarized calculation
MeshCutoff              150 Ry      # Equivalent planewave cutoff for the grid
MaxSCFIterations        10000        # Maximum number of SCF iterations per step
DM.MixingWeight         0.01        # New DM amount for next SCF cycle
DM.Tolerance            1.d-4       # Tolerance in maximum difference
DM.NumberPulay           3          # Number of SCF steps between pulay mixi
DM.MixSCF1             .true.
SlabDipoleCorrection   .true.
SimulateDoping         .true.
Diag.ParallelOverK     .false.
Diag.DivideandConquer  .false.
SolutionMethod          diagon
ElectronicTemperature   298 K   #Useful specially for metals, to accelerate selfcon-sistency.

LatticeConstant  1.0 Ang
%block LatticeVectors
10.99000 0.000000 0.000000
0.000000 60.445000 0.000000
0.000000 0.000000 60.445000
%endblock LatticeVectors

# Basis set definition
PAO.EnergyShift 200 meV
PAO.SplitNorm   0.15
PAO.BasisSize   SZ

%block ChemicalSpeciesLabel
  3    1  H
  4    6  C
  5    7  N
  2    8  O
  1   14  Si
%endblock ChemicalSpeciesLabel

AtomicCoordinatesFormat  Ang
%block AtomicCoordinatesAndAtomicSpecies
    0.40882400    -0.04746200    -0.10698300   1
    0.50247900     2.73072800     2.72202600   1
    3.21492800     2.70195100     0.01083200   1
    3.14249100     0.01565200     2.71483500   1
    4.57475000     1.42398100     4.02505200   1
    1.77838200     1.31829400     1.28966600   1
    4.63633100     4.08763500     1.35645500   1
    0.40076900    60.45033900     5.35815800   1
    5.87999100     2.85597600     7.90780400   1
    3.70244800     3.21681200     5.51214300   1
    2.97488700    60.59091900     7.90592000   1
    4.42602100     1.41405700     9.29559800   1
    1.76183800     1.72093500     6.51886600   1
    0.16705300    60.49221200    10.63834600   1
    5.94135300     2.95726400    13.50814400   1
    3.29520900     2.93369900    10.87846100   1
    2.90012600    60.44291900    13.33592300   1
    4.30178500     1.43401600    14.69353600   1
    1.55123400     1.52168900    11.98790600   1
    0.06938500    60.45858400    16.10795600   1
    5.51572000     2.75863900    19.20681900   1
    3.06094800     2.81921900    16.36487400   1
    2.86018200    60.35881900    18.93928100   1
    3.98612900     1.35143200    20.61877800   1
    1.41290200     1.36928300    17.59865700   1
    0.06027100    60.21158300    21.74372800   1
    4.69983900     2.72672800    24.69024000   1
    2.86130900     2.76900400    22.54821700   1
    2.73614400    60.05176900    24.49993300   1
    3.80856400     0.93240000    26.22752200   1
    1.19008100     1.12471700    23.44426800   1
    0.19436500    59.97060700    27.08531200   1
    0.69220400     2.61869700    29.42855800   1
    5.37863500     4.94924200    27.27875300   1
    2.94559700    60.11023800    29.74454900   1
    4.37606000     1.33789000    30.82207700   1
    1.96467800     0.96418600    27.97234700   1
    5.68910100    60.54614100    32.49663100   1
    0.32950200     3.07348400    35.03260500   1
    2.92313400     3.21208700    31.79820900   1
    2.99956800     0.33327600    35.23667000   1
    4.50556200     1.72376700    36.60099000   1
    1.75401600     1.65415900    33.56113300   1
    5.79225700     0.35151800    38.20720200   1
    0.35448300     3.19965800    40.97116200   1
    3.10581600     3.19575100    38.05939900   1
    3.05364800     0.32571200    41.05492200   1
    4.47912000     1.71049100    42.47394700   1
    1.73199200     1.71367300    39.53595500   1
    5.80050400     0.25819400    43.91729500   1
    0.29576000     3.12406700    46.75455100   1
%endblock AtomicCoordinatesAndAtomicSpecies

#Variable cell
#MD.VariableCell                 T
#MD.PreconditionVariableCell   2.5 Ang
#MD.MaxStressTol               0.1 GPa
#MD.TargetPressure             0.0 GPa
#MD.RelaxCellOnly             .false.

# Molecular dynamics and relaxations
MD.TypeOfRun        cg     # Type of dynamics:
MD.NumCGsteps       0    # Number of CG steps for coordinate optimization
MD.MaxCGDispl      0.1 Ang   # Maximum atomic displacement in one CG step (Bohr)
MD.MaxForceTol    0.05 eV/Ang   # Tolerance in the maximum atomic force (Ry/Bohr)
UseSaveData             .true.

# K-sampling (alternative specification using kgrid_cutoff)
%block kgrid_Monkhorst_Pack
     1   0   0  0.0
     0   2   0  0.0
     0   0   2  0.0
%endblock kgrid_Monkhorst_Pack

#K-Sampling (alternative specification using kgrid_cutoff)
KgridCutoff          10.0 Ang
#####Calculation of dielectric function
OpticalCalculation .true.
Optical.Broaden  0.25 eV
###Optical.EnergyMinimum   0.0 eV
###Optical.EnergyMaximum  20.0 eV
%block Optical.Mesh
  5  5  5
%endblock Optical.Mesh
Optical.OffsetMesh .true.
Optical.PolarizationType polycrystal
#        #


##Mulliken analysis
WriteMullikenPop             (1)
### Hirshfeld analysis
WriteHirshfeldPop         .true.
# Options for saving/reading information
SaveTotalCharge               T
SaveRho                       T
SaveDeltaRho                  T
SaveHS                        T
SaveTotalPotential            T
SaveElectrostaticPotential    T
SaveDeltarho                  T
SaveBaderCharge               T
SaveRhoXC                     T
SaveIonicCharge               T
WriteCoorXmol               .true.
WriteMDXmol                 .true.
WriteMDhistory              .true.
WriteEigenvalues             yes
WriteWaveFunctions          .true.
WriteDenchar                .true. # Write information for DENCHAR
WriteVoronoiPop             .true.
WriteForces                 .true.
XML.Write                   .true.
LongOutput                  .true.